p cnf 12 22
-12 -7 5 0
-12 7 2 0
-11 -7 5 0
11 -5 -3 0
-10 9 -3 0
10 8 4 0
-10 8 2 0
10 7 -3 0
-10 -4 -2 0
-10 3 -2 0
-9 -8 3 0
-9 -7 -4 0
-9 -7 4 0
9 -3 1 0
8 7 -3 0
-7 6 -4 0
7 -4 -1 0
-7 -2 1 0
5 4 2 0
5 -3 -1 0
5 2 -1 0
3 2 -1 0
